\ LP format - for model browsing. Use MPS format to capture full model detail.
Maximize
  3000 x[1] + 5000 x[2]
Subject To
 R0: x[1] <= 4
 R1: 2 x[2] <= 12
 R2: 3 x[1] + 2 x[2] <= 18
Bounds
Generals
 x[1] x[2]
End
